40748 30292
59787 53754
39362 4998
36080 21840
57057 23552
55354 29967
53993 26536
35409 64947
17848 58515
3113 49135
20680 8771
1976 44421
1423 7664
43184 41701
18847 11202
26706 23737
1951 20434
2695 12888
55639 49080
28114 41693
39435 22852
19158 40875
22382 21875
31110 37126
5823 64491
39586 2599
64942 35832
3719 46610
10914 56734
3383 26641
30752 62462
13032 28601
3812 29610
10632 59309
14802 61238
